
Gurobi 11.0.1 (win64) logging started Sun Mar 17 03:04:15 2024

Set parameter LogFile to value "res/logfile/n3div36log.txt"
Gurobi Optimizer version 11.0.1 build v11.0.1rc0 (win64 - Windows 11.0 (22621.2))

CPU model: AMD Ryzen Threadripper PRO 5975WX 32-Cores, instruction set [SSE2|AVX|AVX2]
Thread count: 32 physical cores, 64 logical processors, using up to 10 threads

Optimize a model with 4484 rows, 22120 columns and 340740 nonzeros
Model fingerprint: 0x376f1413
Variable types: 0 continuous, 22120 integer (22120 binary)
Coefficient statistics:
  Matrix range     [1e+00, 2e+01]
  Objective range  [1e+04, 1e+05]
  Bounds range     [1e+00, 1e+00]
  RHS range        [1e+00, 2e+01]
Found heuristic solution: objective 355600.00000
Presolve removed 34 rows and 1518 columns
Presolve time: 0.20s
Presolved: 4450 rows, 20602 columns, 161462 nonzeros
Found heuristic solution: objective 263200.00000
Variable types: 0 continuous, 20602 integer (20602 binary)
Found heuristic solution: objective 241800.00000
Deterministic concurrent LP optimizer: primal and dual simplex
Showing primal log only...

Concurrent spin time: 0.00s

Solved with primal simplex

Root relaxation: objective 1.143334e+05, 1307 iterations, 0.08 seconds (0.10 work units)

    Nodes    |    Current Node    |     Objective Bounds      |     Work
 Expl Unexpl |  Obj  Depth IntInf | Incumbent    BestBd   Gap | It/Node Time

     0     0 114333.375    0   24 241800.000 114333.375  52.7%     -    0s
H    0     0                    156200.00000 114333.375  26.8%     -    0s
H    0     0                    146200.00000 114333.375  21.8%     -    1s
H    0     0                    135000.00000 114333.375  15.3%     -    3s
     0     0 115402.552    0   25 135000.000 115402.552  14.5%     -    3s
H    0     0                    134400.00000 115402.552  14.1%     -    4s
     0     0 120927.013    0   25 134400.000 120927.013  10.0%     -    4s
     0     0 120927.013    0   24 134400.000 120927.013  10.0%     -    4s
     0     0 120927.013    0   25 134400.000 120927.013  10.0%     -    4s
     0     0 120927.013    0   25 134400.000 120927.013  10.0%     -    4s
     0     0 120927.013    0   25 134400.000 120927.013  10.0%     -    4s
     0     0 120927.013    0   25 134400.000 120927.013  10.0%     -    4s
     0     0 120927.013    0   26 134400.000 120927.013  10.0%     -    4s
     0     0 120927.013    0   26 134400.000 120927.013  10.0%     -    6s
     0     0 120927.013    0   24 134400.000 120927.013  10.0%     -    6s
H    0     0                    130800.00000 120927.013  7.55%     -    7s
     0     0 120927.013    0   25 130800.000 120927.013  7.55%     -    7s
     0     0 120951.603    0   25 130800.000 120951.603  7.53%     -    7s
     0     0 120951.603    0   25 130800.000 120951.603  7.53%     -    7s
     0     0 120951.603    0   24 130800.000 120951.603  7.53%     -    7s
     0     0 120951.603    0   26 130800.000 120951.603  7.53%     -    7s
     0     0 120951.603    0   24 130800.000 120951.603  7.53%     -    7s
     0     0 120951.603    0   26 130800.000 120951.603  7.53%     -    7s
     0     0 120951.603    0   25 130800.000 120951.603  7.53%     -    7s
     0     0 120951.603    0   26 130800.000 120951.603  7.53%     -    7s
     0     0 120996.182    0   28 130800.000 120996.182  7.50%     -    8s
     0     0 121129.578    0   28 130800.000 121129.578  7.39%     -    9s
     0     0 121784.986    0   27 130800.000 121784.986  6.89%     -    9s
     0     0 121836.810    0   25 130800.000 121836.810  6.85%     -    9s
     0     0 121973.768    0   24 130800.000 121973.768  6.75%     -    9s
     0     0 122078.853    0   27 130800.000 122078.853  6.67%     -    9s
     0     0 122394.313    0   27 130800.000 122394.313  6.43%     -    9s
     0     0 122740.034    0   26 130800.000 122740.034  6.16%     -    9s
     0     0 122980.045    0   28 130800.000 122980.045  5.98%     -    9s
     0     0 123216.196    0   28 130800.000 123216.196  5.80%     -    9s
     0     0 124087.401    0   26 130800.000 124087.401  5.13%     -   10s
     0     0 124087.401    0   24 130800.000 124087.401  5.13%     -   10s
     0     0 124087.401    0   25 130800.000 124087.401  5.13%     -   11s
     0     0 124087.401    0   25 130800.000 124087.401  5.13%     -   11s
     0     0 124087.401    0   25 130800.000 124087.401  5.13%     -   11s
     0     0 124087.401    0   24 130800.000 124087.401  5.13%     -   11s
     0     0 124087.401    0   26 130800.000 124087.401  5.13%     -   11s
     0     0 124087.401    0   26 130800.000 124087.401  5.13%     -   11s
     0     0 124087.401    0   26 130800.000 124087.401  5.13%     -   11s
     0     0 124087.401    0   27 130800.000 124087.401  5.13%     -   11s
     0     0 124087.401    0   26 130800.000 124087.401  5.13%     -   11s
     0     0 124087.401    0   25 130800.000 124087.401  5.13%     -   11s
     0     0 124087.401    0   27 130800.000 124087.401  5.13%     -   11s
     0     0 124087.401    0   29 130800.000 124087.401  5.13%     -   11s
     0     0 124087.401    0   29 130800.000 124087.401  5.13%     -   11s
     0     0 124087.401    0   30 130800.000 124087.401  5.13%     -   11s
     0     0 124087.401    0   30 130800.000 124087.401  5.13%     -   11s
     0     0 124087.401    0   31 130800.000 124087.401  5.13%     -   11s
     0     0 124087.401    0   31 130800.000 124087.401  5.13%     -   12s
     0     0 124087.401    0   31 130800.000 124087.401  5.13%     -   12s
     0     0 124087.401    0   28 130800.000 124087.401  5.13%     -   12s
     0     0 124087.401    0   29 130800.000 124087.401  5.13%     -   12s
     0     0 124113.369    0   30 130800.000 124113.369  5.11%     -   13s
     0     0 124113.369    0   31 130800.000 124113.369  5.11%     -   15s
     0     0 124524.921    0   27 130800.000 124524.921  4.80%     -   16s
     0     0 124548.033    0   29 130800.000 124548.033  4.78%     -   16s
     0     0 124548.033    0   30 130800.000 124548.033  4.78%     -   16s
     0     0 124548.033    0   27 130800.000 124548.033  4.78%     -   16s
     0     2 124800.000    0   26 130800.000 124800.000  4.59%     -   17s
   939   458 125822.951   49   29 130800.000 124800.000  4.59%   8.4   20s
  2144  1206 127169.880   82   25 130800.000 124800.000  4.59%   6.8   25s
  2166  1221 126979.018   47   37 130800.000 125480.000  4.07%   6.8   30s
  2206  1236 125720.139   15   29 130800.000 125720.139  3.88%   7.9   37s
  3637  1223 125720.139   39   31 130800.000 125720.139  3.88%  12.3   40s
  8380  2157 125881.864   76   31 130800.000 125720.139  3.88%  12.1   45s
 13428  6228 127559.976  118   28 130800.000 125720.139  3.88%  10.5   50s
 17946  9664 126901.691  167   26 130800.000 125720.139  3.88%  10.3   55s
 23933 14217 129262.456  235   27 130800.000 125720.139  3.88%  10.2   60s
 30575 18469 127146.699  307   31 130800.000 125720.139  3.88%  10.0   65s
 33395 19736 129494.075  646   26 130800.000 125720.139  3.88%  10.2   70s
 33425 19756 129341.412  108   38 130800.000 125720.139  3.88%  10.2   75s
 33435 19764 125867.155   22   37 130800.000 125867.155  3.77%  10.2   80s
 35042 19680 128556.196   56   18 130800.000 125867.155  3.77%  10.4   85s
 39913 21376 127178.885  113   31 130800.000 125867.155  3.77%  10.3   90s
 48045 23404 127698.676  171   35 130800.000 125867.155  3.77%  10.0   95s
 49559 23508 128904.735  319   26 130800.000 125867.155  3.77%  10.0  110s
 49589 23528 129375.000  218   43 130800.000 125867.155  3.77%  10.0  116s
 49592 23530 129122.302  143   42 130800.000 126101.732  3.59%  10.0  120s
 50510 23413 129273.333   78   18 130800.000 126101.732  3.59%  10.3  125s
 54052 24035 128897.733  128   21 130800.000 126101.732  3.59%  10.3  130s
 61163 26157 129968.065  245   26 130800.000 127102.005  2.83%  10.2  135s
 68484 28661 129916.825  150   20 130800.000 127330.534  2.65%  10.0  140s
 76283 31997     cutoff   79      130800.000 127519.417  2.51%   9.8  145s
 82976 34460 130481.587  343   12 130800.000 127689.231  2.38%   9.6  150s
 91398 34884     cutoff  218      130800.000 127936.918  2.19%   9.8  155s
 98261 35319 129600.000  119   14 130800.000 128181.818  2.00%  10.0  160s
 104414 35479 129360.000  171   10 130800.000 128346.429  1.88%  10.2  165s
 111170 35333 129090.000  254   11 130800.000 128485.714  1.77%  10.4  170s
 117745 33285     cutoff  213      130800.000 128742.369  1.57%  10.7  175s
 124379 32562     cutoff  107      130800.000 128933.333  1.43%  11.0  180s
 132591 30618 129751.905  186   16 130800.000 129170.055  1.25%  11.6  185s
 140420 27912     cutoff  128      130800.000 129370.461  1.09%  11.9  190s
 148618 23749     cutoff  164      130800.000 129539.919  0.96%  12.3  195s
 153249 20041 129901.000  119   17 130800.000 129660.000  0.87%  12.5  200s
 164246 11374     cutoff  118      130800.000 130000.000  0.61%  12.9  205s
 175492  1763     cutoff  155      130800.000 130332.637  0.36%  13.0  210s

Cutting planes:
  Cover: 6
  MIR: 34
  StrongCG: 7
  Flow cover: 17

Explored 178638 nodes (2318946 simplex iterations) in 212.38 seconds (350.86 work units)
Thread count was 10 (of 64 available processors)

Solution count 8: 130800 134400 135000 ... 355600

Optimal solution found (tolerance 1.00e-04)
Best objective 1.308000000000e+05, best bound 1.308000000000e+05, gap 0.0000%

User-callback calls 364292, time in user-callback 0.05 sec
